1138.0 13285.0 
1178.0 13123.0 
1186.0 13003.0 
1134.0 13457.0 
1163.0 13144.0 
1186.0 13003.0 
1148.0 13275.0 
1131.0 13553.0 
1162.0 13152.0 
1130.0 13755.0 
1179.0 13011.0 
1148.0 13275.0 
1218.0 12979.0 
1123.0 13915.0 
1158.0 13213.0 
1120.0 13974.0 
